75
[7,8,9,10,11,12,13,14,15,16,17,18,19,20,21,22,23,24,25,26,27,28,29,30,31,32,33,34,35,36,37,38,39,40,41,42,43,44,45,46,47,48,49,50,51,52]
[6,7,9,9,13,6,6,8,13,10,9,8,8,7,7,10,10,8,15,6,6,5,9,8,8,10,4,9,14,7,13,12,8,10,8,9,7,15,8,5,10,6,5,9,13,7]
